c   #vars: 44   #clauses: 183   #literals: 526
c 
p cnf 44 183
-1 -2 0
-3 -4 0
-5 -6 0
1 2 -18 41 0
-8 -9 0
3 4 43 44 0
10 11 -14 26 0
-10 -11 0
-12 -13 0
-14 -15 0
-16 -17 0
-18 -19 0
-20 -21 0
-22 -23 0
-24 -25 0
-14 26 -29 42 0
8 9 18 19 0
7 18 19 -43 0
-27 -28 0
-29 -30 0
20 21 -27 36 0
12 13 20 21 0
14 15 -22 31 0
-32 -33 0
-34 -35 0
-10 14 15 26 0
10 11 -14 26 42 0
-37 -38 0
-39 -40 0
10 11 26 29 30 42 0
1 2 16 17 0
-43 -44 0
-1 -16 0
-2 -17 0
1 2 22 23 0
-1 -22 0
-2 -23 0
5 6 32 33 0
-1 -29 0
-2 -30 0
-12 18 19 41 0
-1 -34 0
-2 -35 0
22 23 43 44 0
-1 -37 0
-2 -38 0
-27 29 30 42 0
-2 -41 0
8 9 34 35 0
-3 -16 0
-4 -17 0
8 9 32 33 0
-3 -22 0
-4 -23 0
5 6 24 25 0
-3 -37 0
-4 -38 0
18 19 37 38 0
-3 -39 0
-4 -40 0
20 21 37 38 0
-3 -43 0
-4 -44 0
-5 -24 0
-6 -25 0
1 2 29 30 0
-5 -32 0
-6 -33 0
14 15 39 40 0
-5 -34 0
-6 -35 0
24 25 32 33 0
-5 -37 0
-6 -38 0
1 2 -12 41 0
-7 -17 0
10 11 20 21 0
27 28 -29 42 0
-7 -19 0
14 15 26 29 30 42 0
-7 -44 0
-10 14 15 26 42 0
-8 -18 0
-9 -19 0
12 13 32 33 0
-8 -24 0
-9 -25 0
5 6 34 35 0
-8 -32 0
-9 -33 0
3 4 39 40 0
-8 -34 0
-9 -35 0
12 13 29 30 0
-8 -43 0
-9 -44 0
14 15 -27 36 0
-1 18 19 41 0
12 13 -18 41 0
-1 12 13 41 0
-10 -20 0
-11 -21 0
7 -16 18 19 0
-11 -26 0
5 6 37 38 0
-10 -29 0
-11 -30 0
-12 -20 0
-13 -21 0
7 -16 43 44 0
-12 -22 0
-13 -23 0
1 2 37 38 0
-12 -29 0
-13 -30 0
24 25 39 40 0
-12 -32 0
-13 -33 0
14 15 26 27 28 42 0
-13 -41 0
-14 -24 0
-15 -25 0
10 11 29 30 0
7 16 17 -43 0
-15 -26 0
-14 20 21 36 0
-15 -31 0
22 23 34 35 0
-15 -36 0
3 4 16 17 0
-14 -39 0
-15 -40 0
-10 26 -29 42 0
12 13 22 23 0
-16 -39 0
-17 -40 0
18 19 39 40 0
-18 -37 0
-19 -38 0
16 17 39 40 0
-18 -39 0
-19 -40 0
7 -18 43 44 0
10 11 26 27 28 42 0
-19 -41 0
3 4 22 23 0
-21 -36 0
-14 26 -27 42 0
-20 -37 0
-21 -38 0
14 15 -20 36 0
-20 27 28 36 0
-23 -31 0
3 4 37 38 0
-22 -34 0
-23 -35 0
-10 26 -27 42 0
-22 -43 0
-23 -44 0
8 9 24 25 0
-24 -32 0
-25 -33 0
8 9 43 44 0
-24 -39 0
-25 -40 0
1 2 34 35 0
-24 -43 0
-25 -44 0
-22 27 28 31 0
14 15 24 25 0
-14 22 23 31 0
-14 27 28 31 0
22 23 -27 31 0
7 16 17 -18 0
-26 -42 0
-14 27 28 36 0
-28 -31 0
24 25 43 44 0
-28 -36 0
-16 -17 -37 -38 0
-28 -42 0
14 15 -27 31 0
-30 -42 0
